length = 12;
width = 10;

mist =   array1d(LENGTH,[ 0 | l in LENGTH]);
arrow  = array1d(WIDTH,[ 0 | w in WIDTH]);
price = [ 0, 0, 0, 0, 0, 0 ];
budget = 40;
stage = A;

ntypes = 6;
number = [1,1,1,1,1,1];
config = [{1},{2},{3},{4},{5},{6}];

nshapes = 6;
shape = [{1},{2},{3},{4},{5},{6}];

nroff = 6;
rectoff = [| 0,0,5,1
           | 0,0,3,4
           | 0,0,4,7
           | 0,0,1,3
           | 0,0,8,2
           | 0,0,3,9|]; 
